(set-logic QF_LRA)
(declare-fun fluent_started_i0_t0@0 () Bool)
(declare-fun fluent_started_i0_t1@0 () Bool)
(declare-fun fluent_started_i0_t2@0 () Bool)
(declare-fun fluent_started_i0_t3@0 () Bool)
(declare-fun fluent_started_i0_t4@0 () Bool)
(declare-fun fluent_started_i0_t5@0 () Bool)
(declare-fun fluent_started_i0_t6@0 () Bool)
(declare-fun fluent_started_i0_t7@0 () Bool)
(declare-fun fluent_started_i0_t8@0 () Bool)
(declare-fun fluent_ready_i0_t0@0 () Bool)
(declare-fun fluent_ready_i0_t1@0 () Bool)
(declare-fun fluent_ready_i0_t2@0 () Bool)
(declare-fun fluent_ready_i0_t3@0 () Bool)
(declare-fun fluent_ready_i0_t4@0 () Bool)
(declare-fun fluent_ready_i0_t5@0 () Bool)
(declare-fun fluent_ready_i0_t6@0 () Bool)
(declare-fun fluent_ready_i0_t7@0 () Bool)
(declare-fun fluent_ready_i0_t8@0 () Bool)
(declare-fun fluent_busy_@0 () Bool)
(declare-fun fluent_treated_i0_t0@0 () Bool)
(declare-fun fluent_treated_i0_t1@0 () Bool)
(declare-fun fluent_treated_i0_t2@0 () Bool)
(declare-fun fluent_treated_i0_t3@0 () Bool)
(declare-fun fluent_treated_i0_t4@0 () Bool)
(declare-fun fluent_treated_i0_t5@0 () Bool)
(declare-fun fluent_treated_i0_t6@0 () Bool)
(declare-fun fluent_treated_i0_t7@0 () Bool)
(declare-fun fluent_treated_i0_t8@0 () Bool)
(declare-fun fluent_counter_t0@0 () Real)
(declare-fun fluent_counter_t1@0 () Real)
(declare-fun fluent_counter_t2@0 () Real)
(declare-fun fluent_counter_t3@0 () Real)
(declare-fun fluent_counter_t4@0 () Real)
(declare-fun fluent_counter_t5@0 () Real)
(declare-fun fluent_counter_t6@0 () Real)
(declare-fun fluent_counter_t7@0 () Real)
(declare-fun fluent_counter_t8@0 () Real)
(declare-fun dur_make_treatment@1 () Real)
(declare-fun t@1 () Real)
(declare-fun fluent_counter_t0@1 () Real)
(declare-fun fluent_counter_t1@1 () Real)
(declare-fun parameter_make_treatment_t@1 () Real)
(declare-fun fluent_counter_t2@1 () Real)
(declare-fun fluent_counter_t3@1 () Real)
(declare-fun fluent_counter_t4@1 () Real)
(declare-fun parameter_make_treatment_i@1 () Real)
(declare-fun fluent_counter_t5@1 () Real)
(declare-fun fluent_counter_t6@1 () Real)
(declare-fun fluent_counter_t7@1 () Real)
(declare-fun fluent_counter_t8@1 () Real)
(declare-fun fluent_busy_@1 () Bool)
(declare-fun fluent_started_i0_t0@1 () Bool)
(declare-fun fluent_started_i0_t1@1 () Bool)
(declare-fun fluent_started_i0_t2@1 () Bool)
(declare-fun fluent_started_i0_t3@1 () Bool)
(declare-fun fluent_started_i0_t4@1 () Bool)
(declare-fun fluent_started_i0_t5@1 () Bool)
(declare-fun fluent_started_i0_t6@1 () Bool)
(declare-fun parameter_make_treatment_next@1 () Real)
(declare-fun fluent_started_i0_t7@1 () Bool)
(declare-fun fluent_started_i0_t8@1 () Bool)
(declare-fun fluent_treated_i0_t0@1 () Bool)
(declare-fun fluent_treated_i0_t1@1 () Bool)
(declare-fun fluent_treated_i0_t2@1 () Bool)
(declare-fun fluent_treated_i0_t3@1 () Bool)
(declare-fun fluent_treated_i0_t4@1 () Bool)
(declare-fun fluent_treated_i0_t5@1 () Bool)
(declare-fun fluent_treated_i0_t6@1 () Bool)
(declare-fun fluent_treated_i0_t7@1 () Bool)
(declare-fun fluent_treated_i0_t8@1 () Bool)
(declare-fun fluent_ready_i0_t0@1 () Bool)
(declare-fun fluent_ready_i0_t1@1 () Bool)
(declare-fun fluent_ready_i0_t2@1 () Bool)
(declare-fun fluent_ready_i0_t3@1 () Bool)
(declare-fun fluent_ready_i0_t4@1 () Bool)
(declare-fun fluent_ready_i0_t5@1 () Bool)
(declare-fun fluent_ready_i0_t6@1 () Bool)
(declare-fun fluent_ready_i0_t7@1 () Bool)
(declare-fun fluent_ready_i0_t8@1 () Bool)
(declare-fun act_make_treatment@1 () Bool)
(assert (let ((.def_0 (<= fluent_counter_t2@1 31.0))) (let ((.def_1 (<= 0.0 fluent_counter_t2@1))) (let ((.def_2 (<= fluent_counter_t1@1 31.0))) (let ((.def_3 (<= 0.0 fluent_counter_t1@1))) (let ((.def_4 (<= fluent_counter_t0@1 31.0))) (let ((.def_5 (<= 0.0 fluent_counter_t0@1))) (let ((.def_6 (= parameter_make_treatment_next@1 9.0))) (let ((.def_7 (= parameter_make_treatment_next@1 8.0))) (let ((.def_8 (= parameter_make_treatment_next@1 7.0))) (let ((.def_9 (= parameter_make_treatment_next@1 6.0))) (let ((.def_10 (= parameter_make_treatment_next@1 5.0))) (let ((.def_11 (= parameter_make_treatment_next@1 4.0))) (let ((.def_12 (= parameter_make_treatment_next@1 3.0))) (let ((.def_13 (= parameter_make_treatment_next@1 2.0))) (let ((.def_14 (= parameter_make_treatment_next@1 1.0))) (let ((.def_15 (or .def_14 .def_13 .def_12 .def_11 .def_10 .def_9 .def_8 .def_7 .def_6))) (let ((.def_16 (<= fluent_counter_t8@1 31.0))) (let ((.def_17 (<= 0.0 fluent_counter_t8@1))) (let ((.def_18 (<= fluent_counter_t7@1 31.0))) (let ((.def_19 (<= 0.0 fluent_counter_t7@1))) (let ((.def_20 (<= fluent_counter_t6@1 31.0))) (let ((.def_21 (<= 0.0 fluent_counter_t6@1))) (let ((.def_22 (<= fluent_counter_t5@1 31.0))) (let ((.def_23 (<= 0.0 fluent_counter_t5@1))) (let ((.def_24 (<= fluent_counter_t4@1 31.0))) (let ((.def_25 (= parameter_make_treatment_i@1 0.0))) (let ((.def_26 (<= 0.0 fluent_counter_t4@1))) (let ((.def_27 (= parameter_make_treatment_t@1 9.0))) (let ((.def_28 (= parameter_make_treatment_t@1 8.0))) (let ((.def_29 (= parameter_make_treatment_t@1 7.0))) (let ((.def_30 (= parameter_make_treatment_t@1 6.0))) (let ((.def_31 (= parameter_make_treatment_t@1 5.0))) (let ((.def_32 (= parameter_make_treatment_t@1 4.0))) (let ((.def_33 (= parameter_make_treatment_t@1 3.0))) (let ((.def_34 (= parameter_make_treatment_t@1 2.0))) (let ((.def_35 (= parameter_make_treatment_t@1 1.0))) (let ((.def_36 (or .def_35 .def_34 .def_33 .def_32 .def_31 .def_30 .def_29 .def_28 .def_27))) (let ((.def_37 (<= fluent_counter_t3@1 31.0))) (let ((.def_38 (<= 0.0 fluent_counter_t3@1))) (let ((.def_39 (and act_make_treatment@1 true .def_27))) (let ((.def_40 (= fluent_counter_t8@0 fluent_counter_t8@1))) (let ((.def_41 (not .def_40))) (let ((.def_42 (=> .def_41 .def_39))) (let ((.def_43 (and act_make_treatment@1 true .def_28))) (let ((.def_44 (= fluent_counter_t7@0 fluent_counter_t7@1))) (let ((.def_45 (not .def_44))) (let ((.def_46 (=> .def_45 .def_43))) (let ((.def_47 (and act_make_treatment@1 true .def_29))) (let ((.def_48 (= fluent_counter_t6@0 fluent_counter_t6@1))) (let ((.def_49 (not .def_48))) (let ((.def_50 (=> .def_49 .def_47))) (let ((.def_51 (and act_make_treatment@1 true .def_30))) (let ((.def_52 (= fluent_counter_t5@0 fluent_counter_t5@1))) (let ((.def_53 (not .def_52))) (let ((.def_54 (=> .def_53 .def_51))) (let ((.def_55 (and act_make_treatment@1 true .def_31))) (let ((.def_56 (= fluent_counter_t4@0 fluent_counter_t4@1))) (let ((.def_57 (not .def_56))) (let ((.def_58 (=> .def_57 .def_55))) (let ((.def_59 (and act_make_treatment@1 true .def_32))) (let ((.def_60 (= fluent_counter_t3@0 fluent_counter_t3@1))) (let ((.def_61 (not .def_60))) (let ((.def_62 (=> .def_61 .def_59))) (let ((.def_63 (and act_make_treatment@1 true .def_33))) (let ((.def_64 (= fluent_counter_t2@0 fluent_counter_t2@1))) (let ((.def_65 (not .def_64))) (let ((.def_66 (=> .def_65 .def_63))) (let ((.def_67 (and act_make_treatment@1 true .def_34))) (let ((.def_68 (= fluent_counter_t1@0 fluent_counter_t1@1))) (let ((.def_69 (not .def_68))) (let ((.def_70 (=> .def_69 .def_67))) (let ((.def_71 (and act_make_treatment@1 true .def_35))) (let ((.def_72 (= fluent_counter_t0@0 fluent_counter_t0@1))) (let ((.def_73 (not .def_72))) (let ((.def_74 (=> .def_73 .def_71))) (let ((.def_75 (+ t@1 10.0))) (let ((.def_76 (= t@1 .def_75))) (let ((.def_77 (and act_make_treatment@1 true .def_76 .def_25 .def_6))) (let ((.def_78 (= fluent_ready_i0_t8@0 fluent_ready_i0_t8@1))) (let ((.def_79 (not .def_78))) (let ((.def_80 (=> .def_79 .def_77))) (let ((.def_81 (and act_make_treatment@1 true .def_76 .def_25 .def_7))) (let ((.def_82 (= fluent_ready_i0_t7@0 fluent_ready_i0_t7@1))) (let ((.def_83 (not .def_82))) (let ((.def_84 (=> .def_83 .def_81))) (let ((.def_85 (and act_make_treatment@1 true .def_76 .def_25 .def_8))) (let ((.def_86 (= fluent_ready_i0_t6@0 fluent_ready_i0_t6@1))) (let ((.def_87 (not .def_86))) (let ((.def_88 (=> .def_87 .def_85))) (let ((.def_89 (and act_make_treatment@1 true .def_76 .def_25 .def_9))) (let ((.def_90 (= fluent_ready_i0_t5@0 fluent_ready_i0_t5@1))) (let ((.def_91 (not .def_90))) (let ((.def_92 (=> .def_91 .def_89))) (let ((.def_93 (and act_make_treatment@1 true .def_76 .def_25 .def_10))) (let ((.def_94 (= fluent_ready_i0_t4@0 fluent_ready_i0_t4@1))) (let ((.def_95 (not .def_94))) (let ((.def_96 (=> .def_95 .def_93))) (let ((.def_97 (and act_make_treatment@1 true .def_76 .def_25 .def_11))) (let ((.def_98 (= fluent_ready_i0_t3@0 fluent_ready_i0_t3@1))) (let ((.def_99 (not .def_98))) (let ((.def_100 (=> .def_99 .def_97))) (let ((.def_101 (and act_make_treatment@1 true .def_76 .def_25 .def_12))) (let ((.def_102 (= fluent_ready_i0_t2@0 fluent_ready_i0_t2@1))) (let ((.def_103 (not .def_102))) (let ((.def_104 (=> .def_103 .def_101))) (let ((.def_105 (and act_make_treatment@1 true .def_76 .def_25 .def_13))) (let ((.def_106 (= fluent_ready_i0_t1@0 fluent_ready_i0_t1@1))) (let ((.def_107 (not .def_106))) (let ((.def_108 (=> .def_107 .def_105))) (let ((.def_109 (and act_make_treatment@1 true .def_76 .def_25 .def_14))) (let ((.def_110 (= fluent_ready_i0_t0@0 fluent_ready_i0_t0@1))) (let ((.def_111 (not .def_110))) (let ((.def_112 (=> .def_111 .def_109))) (let ((.def_113 (and act_make_treatment@1 true .def_25 .def_27))) (let ((.def_114 (= fluent_started_i0_t8@0 fluent_started_i0_t8@1))) (let ((.def_115 (not .def_114))) (let ((.def_116 (=> .def_115 .def_113))) (let ((.def_117 (and act_make_treatment@1 true .def_25 .def_28))) (let ((.def_118 (= fluent_started_i0_t7@0 fluent_started_i0_t7@1))) (let ((.def_119 (not .def_118))) (let ((.def_120 (=> .def_119 .def_117))) (let ((.def_121 (and act_make_treatment@1 true .def_25 .def_29))) (let ((.def_122 (= fluent_started_i0_t6@0 fluent_started_i0_t6@1))) (let ((.def_123 (not .def_122))) (let ((.def_124 (=> .def_123 .def_121))) (let ((.def_125 (and act_make_treatment@1 true .def_25 .def_30))) (let ((.def_126 (= fluent_started_i0_t5@0 fluent_started_i0_t5@1))) (let ((.def_127 (not .def_126))) (let ((.def_128 (=> .def_127 .def_125))) (let ((.def_129 (and act_make_treatment@1 true .def_25 .def_31))) (let ((.def_130 (= fluent_started_i0_t4@0 fluent_started_i0_t4@1))) (let ((.def_131 (not .def_130))) (let ((.def_132 (=> .def_131 .def_129))) (let ((.def_133 (and act_make_treatment@1 true .def_25 .def_32))) (let ((.def_134 (= fluent_started_i0_t3@0 fluent_started_i0_t3@1))) (let ((.def_135 (not .def_134))) (let ((.def_136 (=> .def_135 .def_133))) (let ((.def_137 (and act_make_treatment@1 true .def_25 .def_33))) (let ((.def_138 (= fluent_started_i0_t2@0 fluent_started_i0_t2@1))) (let ((.def_139 (not .def_138))) (let ((.def_140 (=> .def_139 .def_137))) (let ((.def_141 (and act_make_treatment@1 true .def_25 .def_34))) (let ((.def_142 (= fluent_started_i0_t1@0 fluent_started_i0_t1@1))) (let ((.def_143 (not .def_142))) (let ((.def_144 (=> .def_143 .def_141))) (let ((.def_145 (and act_make_treatment@1 true .def_25 .def_35))) (let ((.def_146 (= fluent_started_i0_t0@0 fluent_started_i0_t0@1))) (let ((.def_147 (not .def_146))) (let ((.def_148 (=> .def_147 .def_145))) (let ((.def_149 (+ t@1 4.0))) (let ((.def_150 (= t@1 .def_149))) (let ((.def_151 (and act_make_treatment@1 true .def_150 .def_25 .def_27))) (let ((.def_152 (= fluent_treated_i0_t8@0 fluent_treated_i0_t8@1))) (let ((.def_153 (not .def_152))) (let ((.def_154 (=> .def_153 .def_151))) (let ((.def_155 (and act_make_treatment@1 true .def_150 .def_25 .def_28))) (let ((.def_156 (= fluent_treated_i0_t7@0 fluent_treated_i0_t7@1))) (let ((.def_157 (not .def_156))) (let ((.def_158 (=> .def_157 .def_155))) (let ((.def_159 (and act_make_treatment@1 true .def_150 .def_25 .def_29))) (let ((.def_160 (= fluent_treated_i0_t6@0 fluent_treated_i0_t6@1))) (let ((.def_161 (not .def_160))) (let ((.def_162 (=> .def_161 .def_159))) (let ((.def_163 (and act_make_treatment@1 true .def_150 .def_25 .def_30))) (let ((.def_164 (= fluent_treated_i0_t5@0 fluent_treated_i0_t5@1))) (let ((.def_165 (not .def_164))) (let ((.def_166 (=> .def_165 .def_163))) (let ((.def_167 (and act_make_treatment@1 true .def_150 .def_25 .def_31))) (let ((.def_168 (= fluent_treated_i0_t4@0 fluent_treated_i0_t4@1))) (let ((.def_169 (not .def_168))) (let ((.def_170 (=> .def_169 .def_167))) (let ((.def_171 (and act_make_treatment@1 true .def_150 .def_25 .def_32))) (let ((.def_172 (= fluent_treated_i0_t3@0 fluent_treated_i0_t3@1))) (let ((.def_173 (not .def_172))) (let ((.def_174 (=> .def_173 .def_171))) (let ((.def_175 (and act_make_treatment@1 true .def_150 .def_25 .def_33))) (let ((.def_176 (= fluent_treated_i0_t2@0 fluent_treated_i0_t2@1))) (let ((.def_177 (not .def_176))) (let ((.def_178 (=> .def_177 .def_175))) (let ((.def_179 (and act_make_treatment@1 true .def_150 .def_25 .def_34))) (let ((.def_180 (= fluent_treated_i0_t1@0 fluent_treated_i0_t1@1))) (let ((.def_181 (not .def_180))) (let ((.def_182 (=> .def_181 .def_179))) (let ((.def_183 (and act_make_treatment@1 true .def_150 .def_25 .def_35))) (let ((.def_184 (= fluent_treated_i0_t0@0 fluent_treated_i0_t0@1))) (let ((.def_185 (not .def_184))) (let ((.def_186 (=> .def_185 .def_183))) (let ((.def_187 (and act_make_treatment@1 true .def_150))) (let ((.def_188 (and act_make_treatment@1 true))) (let ((.def_189 (and .def_188 .def_187))) (let ((.def_190 (not .def_189))) (let ((.def_191 (or .def_188 .def_187))) (let ((.def_192 (= fluent_busy_@0 fluent_busy_@1))) (let ((.def_193 (not .def_192))) (let ((.def_194 (=> .def_193 .def_191))) (let ((.def_195 (and .def_194 .def_190 .def_186 .def_182 .def_178 .def_174 .def_170 .def_166 .def_162 .def_158 .def_154 .def_148 .def_144 .def_140 .def_136 .def_132 .def_128 .def_124 .def_120 .def_116 .def_112 .def_108 .def_104 .def_100 .def_96 .def_92 .def_88 .def_84 .def_80 .def_74 .def_70 .def_66 .def_62 .def_58 .def_54 .def_50 .def_46 .def_42))) (let ((.def_196 (<= 0.0 t@1))) (let ((.def_197 (and .def_25 .def_13))) (let ((.def_198 (ite .def_197 fluent_ready_i0_t1@1 fluent_ready_i0_t0@1))) (let ((.def_199 (and .def_25 .def_12))) (let ((.def_200 (ite .def_199 fluent_ready_i0_t2@1 .def_198))) (let ((.def_201 (and .def_25 .def_11))) (let ((.def_202 (ite .def_201 fluent_ready_i0_t3@1 .def_200))) (let ((.def_203 (and .def_25 .def_10))) (let ((.def_204 (ite .def_203 fluent_ready_i0_t4@1 .def_202))) (let ((.def_205 (and .def_25 .def_9))) (let ((.def_206 (ite .def_205 fluent_ready_i0_t5@1 .def_204))) (let ((.def_207 (and .def_25 .def_8))) (let ((.def_208 (ite .def_207 fluent_ready_i0_t6@1 .def_206))) (let ((.def_209 (and .def_25 .def_7))) (let ((.def_210 (ite .def_209 fluent_ready_i0_t7@1 .def_208))) (let ((.def_211 (and .def_25 .def_6))) (let ((.def_212 (ite .def_211 fluent_ready_i0_t8@1 .def_210))) (let ((.def_213 (= .def_212 true))) (let ((.def_214 (=> true .def_213))) (let ((.def_215 (and .def_76 .def_214))) (let ((.def_216 (= fluent_busy_@1 false))) (let ((.def_217 (=> true .def_216))) (let ((.def_218 (and .def_25 .def_34))) (let ((.def_219 (ite .def_218 fluent_treated_i0_t1@1 fluent_treated_i0_t0@1))) (let ((.def_220 (and .def_25 .def_33))) (let ((.def_221 (ite .def_220 fluent_treated_i0_t2@1 .def_219))) (let ((.def_222 (and .def_25 .def_32))) (let ((.def_223 (ite .def_222 fluent_treated_i0_t3@1 .def_221))) (let ((.def_224 (and .def_25 .def_31))) (let ((.def_225 (ite .def_224 fluent_treated_i0_t4@1 .def_223))) (let ((.def_226 (and .def_25 .def_30))) (let ((.def_227 (ite .def_226 fluent_treated_i0_t5@1 .def_225))) (let ((.def_228 (and .def_25 .def_29))) (let ((.def_229 (ite .def_228 fluent_treated_i0_t6@1 .def_227))) (let ((.def_230 (and .def_25 .def_28))) (let ((.def_231 (ite .def_230 fluent_treated_i0_t7@1 .def_229))) (let ((.def_232 (and .def_25 .def_27))) (let ((.def_233 (ite .def_232 fluent_treated_i0_t8@1 .def_231))) (let ((.def_234 (= .def_233 true))) (let ((.def_235 (=> true .def_234))) (let ((.def_236 (and .def_150 .def_235 .def_217))) (let ((.def_237 (ite .def_218 fluent_started_i0_t1@1 fluent_started_i0_t0@1))) (let ((.def_238 (ite .def_220 fluent_started_i0_t2@1 .def_237))) (let ((.def_239 (ite .def_222 fluent_started_i0_t3@1 .def_238))) (let ((.def_240 (ite .def_224 fluent_started_i0_t4@1 .def_239))) (let ((.def_241 (ite .def_226 fluent_started_i0_t5@1 .def_240))) (let ((.def_242 (ite .def_228 fluent_started_i0_t6@1 .def_241))) (let ((.def_243 (ite .def_230 fluent_started_i0_t7@1 .def_242))) (let ((.def_244 (ite .def_232 fluent_started_i0_t8@1 .def_243))) (let ((.def_245 (= .def_244 true))) (let ((.def_246 (=> true .def_245))) (let ((.def_247 (= fluent_busy_@1 true))) (let ((.def_248 (=> true .def_247))) (let ((.def_249 (ite .def_34 fluent_counter_t1@0 fluent_counter_t0@0))) (let ((.def_250 (ite .def_33 fluent_counter_t2@0 .def_249))) (let ((.def_251 (ite .def_32 fluent_counter_t3@0 .def_250))) (let ((.def_252 (ite .def_31 fluent_counter_t4@0 .def_251))) (let ((.def_253 (ite .def_30 fluent_counter_t5@0 .def_252))) (let ((.def_254 (ite .def_29 fluent_counter_t6@0 .def_253))) (let ((.def_255 (ite .def_28 fluent_counter_t7@0 .def_254))) (let ((.def_256 (ite .def_27 fluent_counter_t8@0 .def_255))) (let ((.def_257 (+ .def_256 1.0))) (let ((.def_258 (ite .def_34 fluent_counter_t1@1 fluent_counter_t0@1))) (let ((.def_259 (ite .def_33 fluent_counter_t2@1 .def_258))) (let ((.def_260 (ite .def_32 fluent_counter_t3@1 .def_259))) (let ((.def_261 (ite .def_31 fluent_counter_t4@1 .def_260))) (let ((.def_262 (ite .def_30 fluent_counter_t5@1 .def_261))) (let ((.def_263 (ite .def_29 fluent_counter_t6@1 .def_262))) (let ((.def_264 (ite .def_28 fluent_counter_t7@1 .def_263))) (let ((.def_265 (ite .def_27 fluent_counter_t8@1 .def_264))) (let ((.def_266 (= .def_265 .def_257))) (let ((.def_267 (=> true .def_266))) (let ((.def_268 (= t@1 t@1))) (let ((.def_269 (and .def_268 .def_267 .def_248 .def_246))) (let ((.def_270 (ite .def_197 fluent_started_i0_t1@0 fluent_started_i0_t0@0))) (let ((.def_271 (ite .def_199 fluent_started_i0_t2@0 .def_270))) (let ((.def_272 (ite .def_201 fluent_started_i0_t3@0 .def_271))) (let ((.def_273 (ite .def_203 fluent_started_i0_t4@0 .def_272))) (let ((.def_274 (ite .def_205 fluent_started_i0_t5@0 .def_273))) (let ((.def_275 (ite .def_207 fluent_started_i0_t6@0 .def_274))) (let ((.def_276 (ite .def_209 fluent_started_i0_t7@0 .def_275))) (let ((.def_277 (ite .def_211 fluent_started_i0_t8@0 .def_276))) (let ((.def_278 (+ t@1 dur_make_treatment@1))) (let ((.def_279 (<= .def_278 t@1))) (let ((.def_280 (< (- 1.0) .def_278))) (let ((.def_281 (and .def_280 .def_279))) (let ((.def_282 (=> .def_281 .def_277))) (let ((.def_283 (ite .def_218 fluent_ready_i0_t1@0 fluent_ready_i0_t0@0))) (let ((.def_284 (ite .def_220 fluent_ready_i0_t2@0 .def_283))) (let ((.def_285 (ite .def_222 fluent_ready_i0_t3@0 .def_284))) (let ((.def_286 (ite .def_224 fluent_ready_i0_t4@0 .def_285))) (let ((.def_287 (ite .def_226 fluent_ready_i0_t5@0 .def_286))) (let ((.def_288 (ite .def_228 fluent_ready_i0_t6@0 .def_287))) (let ((.def_289 (ite .def_230 fluent_ready_i0_t7@0 .def_288))) (let ((.def_290 (ite .def_232 fluent_ready_i0_t8@0 .def_289))) (let ((.def_291 (ite .def_218 fluent_started_i0_t1@0 fluent_started_i0_t0@0))) (let ((.def_292 (ite .def_220 fluent_started_i0_t2@0 .def_291))) (let ((.def_293 (ite .def_222 fluent_started_i0_t3@0 .def_292))) (let ((.def_294 (ite .def_224 fluent_started_i0_t4@0 .def_293))) (let ((.def_295 (ite .def_226 fluent_started_i0_t5@0 .def_294))) (let ((.def_296 (ite .def_228 fluent_started_i0_t6@0 .def_295))) (let ((.def_297 (ite .def_230 fluent_started_i0_t7@0 .def_296))) (let ((.def_298 (ite .def_232 fluent_started_i0_t8@0 .def_297))) (let ((.def_299 (not .def_298))) (let ((.def_300 (ite .def_218 fluent_treated_i0_t1@0 fluent_treated_i0_t0@0))) (let ((.def_301 (ite .def_220 fluent_treated_i0_t2@0 .def_300))) (let ((.def_302 (ite .def_222 fluent_treated_i0_t3@0 .def_301))) (let ((.def_303 (ite .def_224 fluent_treated_i0_t4@0 .def_302))) (let ((.def_304 (ite .def_226 fluent_treated_i0_t5@0 .def_303))) (let ((.def_305 (ite .def_228 fluent_treated_i0_t6@0 .def_304))) (let ((.def_306 (ite .def_230 fluent_treated_i0_t7@0 .def_305))) (let ((.def_307 (ite .def_232 fluent_treated_i0_t8@0 .def_306))) (let ((.def_308 (not .def_307))) (let ((.def_309 (not fluent_busy_@0))) (let ((.def_310 (and .def_34 .def_14))) (let ((.def_311 (ite .def_310 false false))) (let ((.def_312 (and .def_33 .def_14))) (let ((.def_313 (ite .def_312 false .def_311))) (let ((.def_314 (and .def_32 .def_14))) (let ((.def_315 (ite .def_314 false .def_313))) (let ((.def_316 (and .def_31 .def_14))) (let ((.def_317 (ite .def_316 false .def_315))) (let ((.def_318 (and .def_30 .def_14))) (let ((.def_319 (ite .def_318 false .def_317))) (let ((.def_320 (and .def_29 .def_14))) (let ((.def_321 (ite .def_320 false .def_319))) (let ((.def_322 (and .def_28 .def_14))) (let ((.def_323 (ite .def_322 false .def_321))) (let ((.def_324 (and .def_27 .def_14))) (let ((.def_325 (ite .def_324 false .def_323))) (let ((.def_326 (and .def_35 .def_13))) (let ((.def_327 (ite .def_326 true .def_325))) (let ((.def_328 (and .def_34 .def_13))) (let ((.def_329 (ite .def_328 false .def_327))) (let ((.def_330 (and .def_33 .def_13))) (let ((.def_331 (ite .def_330 false .def_329))) (let ((.def_332 (and .def_32 .def_13))) (let ((.def_333 (ite .def_332 false .def_331))) (let ((.def_334 (and .def_31 .def_13))) (let ((.def_335 (ite .def_334 false .def_333))) (let ((.def_336 (and .def_30 .def_13))) (let ((.def_337 (ite .def_336 false .def_335))) (let ((.def_338 (and .def_29 .def_13))) (let ((.def_339 (ite .def_338 false .def_337))) (let ((.def_340 (and .def_28 .def_13))) (let ((.def_341 (ite .def_340 false .def_339))) (let ((.def_342 (and .def_27 .def_13))) (let ((.def_343 (ite .def_342 false .def_341))) (let ((.def_344 (and .def_35 .def_12))) (let ((.def_345 (ite .def_344 false .def_343))) (let ((.def_346 (and .def_34 .def_12))) (let ((.def_347 (ite .def_346 true .def_345))) (let ((.def_348 (and .def_33 .def_12))) (let ((.def_349 (ite .def_348 false .def_347))) (let ((.def_350 (and .def_32 .def_12))) (let ((.def_351 (ite .def_350 false .def_349))) (let ((.def_352 (and .def_31 .def_12))) (let ((.def_353 (ite .def_352 false .def_351))) (let ((.def_354 (and .def_30 .def_12))) (let ((.def_355 (ite .def_354 false .def_353))) (let ((.def_356 (and .def_29 .def_12))) (let ((.def_357 (ite .def_356 false .def_355))) (let ((.def_358 (and .def_28 .def_12))) (let ((.def_359 (ite .def_358 false .def_357))) (let ((.def_360 (and .def_27 .def_12))) (let ((.def_361 (ite .def_360 false .def_359))) (let ((.def_362 (and .def_35 .def_11))) (let ((.def_363 (ite .def_362 false .def_361))) (let ((.def_364 (and .def_34 .def_11))) (let ((.def_365 (ite .def_364 false .def_363))) (let ((.def_366 (and .def_33 .def_11))) (let ((.def_367 (ite .def_366 true .def_365))) (let ((.def_368 (and .def_32 .def_11))) (let ((.def_369 (ite .def_368 false .def_367))) (let ((.def_370 (and .def_31 .def_11))) (let ((.def_371 (ite .def_370 false .def_369))) (let ((.def_372 (and .def_30 .def_11))) (let ((.def_373 (ite .def_372 false .def_371))) (let ((.def_374 (and .def_29 .def_11))) (let ((.def_375 (ite .def_374 false .def_373))) (let ((.def_376 (and .def_28 .def_11))) (let ((.def_377 (ite .def_376 false .def_375))) (let ((.def_378 (and .def_27 .def_11))) (let ((.def_379 (ite .def_378 false .def_377))) (let ((.def_380 (and .def_35 .def_10))) (let ((.def_381 (ite .def_380 false .def_379))) (let ((.def_382 (and .def_34 .def_10))) (let ((.def_383 (ite .def_382 false .def_381))) (let ((.def_384 (and .def_33 .def_10))) (let ((.def_385 (ite .def_384 false .def_383))) (let ((.def_386 (and .def_32 .def_10))) (let ((.def_387 (ite .def_386 true .def_385))) (let ((.def_388 (and .def_31 .def_10))) (let ((.def_389 (ite .def_388 false .def_387))) (let ((.def_390 (and .def_30 .def_10))) (let ((.def_391 (ite .def_390 false .def_389))) (let ((.def_392 (and .def_29 .def_10))) (let ((.def_393 (ite .def_392 false .def_391))) (let ((.def_394 (and .def_28 .def_10))) (let ((.def_395 (ite .def_394 false .def_393))) (let ((.def_396 (and .def_27 .def_10))) (let ((.def_397 (ite .def_396 false .def_395))) (let ((.def_398 (and .def_35 .def_9))) (let ((.def_399 (ite .def_398 false .def_397))) (let ((.def_400 (and .def_34 .def_9))) (let ((.def_401 (ite .def_400 false .def_399))) (let ((.def_402 (and .def_33 .def_9))) (let ((.def_403 (ite .def_402 false .def_401))) (let ((.def_404 (and .def_32 .def_9))) (let ((.def_405 (ite .def_404 false .def_403))) (let ((.def_406 (and .def_31 .def_9))) (let ((.def_407 (ite .def_406 true .def_405))) (let ((.def_408 (and .def_30 .def_9))) (let ((.def_409 (ite .def_408 false .def_407))) (let ((.def_410 (and .def_29 .def_9))) (let ((.def_411 (ite .def_410 false .def_409))) (let ((.def_412 (and .def_28 .def_9))) (let ((.def_413 (ite .def_412 false .def_411))) (let ((.def_414 (and .def_27 .def_9))) (let ((.def_415 (ite .def_414 false .def_413))) (let ((.def_416 (and .def_35 .def_8))) (let ((.def_417 (ite .def_416 false .def_415))) (let ((.def_418 (and .def_34 .def_8))) (let ((.def_419 (ite .def_418 false .def_417))) (let ((.def_420 (and .def_33 .def_8))) (let ((.def_421 (ite .def_420 false .def_419))) (let ((.def_422 (and .def_32 .def_8))) (let ((.def_423 (ite .def_422 false .def_421))) (let ((.def_424 (and .def_31 .def_8))) (let ((.def_425 (ite .def_424 false .def_423))) (let ((.def_426 (and .def_30 .def_8))) (let ((.def_427 (ite .def_426 true .def_425))) (let ((.def_428 (and .def_29 .def_8))) (let ((.def_429 (ite .def_428 false .def_427))) (let ((.def_430 (and .def_28 .def_8))) (let ((.def_431 (ite .def_430 false .def_429))) (let ((.def_432 (and .def_27 .def_8))) (let ((.def_433 (ite .def_432 false .def_431))) (let ((.def_434 (and .def_35 .def_7))) (let ((.def_435 (ite .def_434 false .def_433))) (let ((.def_436 (and .def_34 .def_7))) (let ((.def_437 (ite .def_436 false .def_435))) (let ((.def_438 (and .def_33 .def_7))) (let ((.def_439 (ite .def_438 false .def_437))) (let ((.def_440 (and .def_32 .def_7))) (let ((.def_441 (ite .def_440 false .def_439))) (let ((.def_442 (and .def_31 .def_7))) (let ((.def_443 (ite .def_442 false .def_441))) (let ((.def_444 (and .def_30 .def_7))) (let ((.def_445 (ite .def_444 false .def_443))) (let ((.def_446 (and .def_29 .def_7))) (let ((.def_447 (ite .def_446 true .def_445))) (let ((.def_448 (and .def_28 .def_7))) (let ((.def_449 (ite .def_448 false .def_447))) (let ((.def_450 (and .def_27 .def_7))) (let ((.def_451 (ite .def_450 false .def_449))) (let ((.def_452 (and .def_35 .def_6))) (let ((.def_453 (ite .def_452 false .def_451))) (let ((.def_454 (and .def_34 .def_6))) (let ((.def_455 (ite .def_454 false .def_453))) (let ((.def_456 (and .def_33 .def_6))) (let ((.def_457 (ite .def_456 false .def_455))) (let ((.def_458 (and .def_32 .def_6))) (let ((.def_459 (ite .def_458 false .def_457))) (let ((.def_460 (and .def_31 .def_6))) (let ((.def_461 (ite .def_460 false .def_459))) (let ((.def_462 (and .def_30 .def_6))) (let ((.def_463 (ite .def_462 false .def_461))) (let ((.def_464 (and .def_29 .def_6))) (let ((.def_465 (ite .def_464 false .def_463))) (let ((.def_466 (and .def_28 .def_6))) (let ((.def_467 (ite .def_466 true .def_465))) (let ((.def_468 (and .def_27 .def_6))) (let ((.def_469 (ite .def_468 false .def_467))) (let ((.def_470 (= 0.0 .def_256))) (let ((.def_471 (and .def_470 .def_469 .def_309 .def_308 .def_299 .def_290))) (let ((.def_472 (<= t@1 t@1))) (let ((.def_473 (< (- 1.0) t@1))) (let ((.def_474 (and .def_473 .def_472))) (let ((.def_475 (=> .def_474 .def_471))) (let ((.def_476 (<= dur_make_treatment@1 15.0))) (let ((.def_477 (<= 15.0 dur_make_treatment@1))) (let ((.def_478 (and .def_477 .def_476))) (let ((.def_479 (and .def_478 .def_279 .def_475 .def_282 .def_269 .def_236 .def_215))) (let ((.def_480 (=> act_make_treatment@1 .def_479))) (let ((.def_481 (<= 0.0 fluent_counter_t7@0))) (let ((.def_482 (<= fluent_counter_t6@0 31.0))) (let ((.def_483 (<= 0.0 fluent_counter_t6@0))) (let ((.def_484 (<= fluent_counter_t5@0 31.0))) (let ((.def_485 (<= 0.0 fluent_counter_t5@0))) (let ((.def_486 (<= fluent_counter_t4@0 31.0))) (let ((.def_487 (<= 0.0 fluent_counter_t4@0))) (let ((.def_488 (<= fluent_counter_t3@0 31.0))) (let ((.def_489 (<= 0.0 fluent_counter_t3@0))) (let ((.def_490 (<= fluent_counter_t2@0 31.0))) (let ((.def_491 (<= 0.0 fluent_counter_t2@0))) (let ((.def_492 (<= fluent_counter_t1@0 31.0))) (let ((.def_493 (<= 0.0 fluent_counter_t1@0))) (let ((.def_494 (<= fluent_counter_t0@0 31.0))) (let ((.def_495 (<= 0.0 fluent_counter_t0@0))) (let ((.def_496 (<= fluent_counter_t8@0 31.0))) (let ((.def_497 (<= 0.0 fluent_counter_t8@0))) (let ((.def_498 (<= fluent_counter_t7@0 31.0))) (let ((.def_499 (= fluent_counter_t8@0 0.0))) (let ((.def_500 (= fluent_counter_t7@0 0.0))) (let ((.def_501 (= fluent_counter_t6@0 0.0))) (let ((.def_502 (= fluent_counter_t5@0 0.0))) (let ((.def_503 (= fluent_counter_t4@0 0.0))) (let ((.def_504 (= fluent_counter_t3@0 0.0))) (let ((.def_505 (= fluent_counter_t2@0 0.0))) (let ((.def_506 (= fluent_counter_t1@0 0.0))) (let ((.def_507 (= fluent_counter_t0@0 0.0))) (let ((.def_508 (= false false))) (let ((.def_509 (= fluent_ready_i0_t8@0 false))) (let ((.def_510 (= fluent_ready_i0_t7@0 false))) (let ((.def_511 (= fluent_ready_i0_t6@0 false))) (let ((.def_512 (= fluent_ready_i0_t5@0 false))) (let ((.def_513 (= fluent_ready_i0_t4@0 false))) (let ((.def_514 (= fluent_ready_i0_t3@0 false))) (let ((.def_515 (= fluent_ready_i0_t2@0 false))) (let ((.def_516 (= fluent_ready_i0_t1@0 false))) (let ((.def_517 (= fluent_started_i0_t7@0 false))) (let ((.def_518 (= fluent_started_i0_t6@0 false))) (let ((.def_519 (= fluent_started_i0_t5@0 false))) (let ((.def_520 (= fluent_started_i0_t4@0 false))) (let ((.def_521 (= fluent_started_i0_t3@0 false))) (let ((.def_522 (= fluent_started_i0_t2@0 false))) (let ((.def_523 (= fluent_started_i0_t1@0 false))) (let ((.def_524 (= fluent_started_i0_t0@0 false))) (let ((.def_525 (= fluent_treated_i0_t8@0 false))) (let ((.def_526 (= fluent_treated_i0_t7@0 false))) (let ((.def_527 (= fluent_treated_i0_t6@0 false))) (let ((.def_528 (= fluent_treated_i0_t5@0 false))) (let ((.def_529 (= fluent_treated_i0_t4@0 false))) (let ((.def_530 (= fluent_treated_i0_t3@0 false))) (let ((.def_531 (= fluent_treated_i0_t2@0 false))) (let ((.def_532 (= fluent_treated_i0_t1@0 false))) (let ((.def_533 (= fluent_treated_i0_t0@0 false))) (let ((.def_534 (= fluent_busy_@0 false))) (let ((.def_535 (= fluent_ready_i0_t0@0 true))) (let ((.def_536 (= fluent_started_i0_t8@0 true))) (let ((.def_537 (= true true))) (let ((.def_538 (= 0.0 0.0))) (let ((.def_539 (and .def_538 .def_537 .def_537 .def_537 .def_537 .def_537 .def_537 .def_537 .def_537 .def_536 .def_535 .def_534 .def_533 .def_532 .def_531 .def_530 .def_529 .def_528 .def_527 .def_526 .def_525 .def_524 .def_523 .def_522 .def_521 .def_520 .def_519 .def_518 .def_517 .def_516 .def_515 .def_514 .def_513 .def_512 .def_511 .def_510 .def_509 .def_508 .def_508 .def_508 .def_508 .def_508 .def_508 .def_508 .def_508 .def_508 .def_508 .def_508 .def_508 .def_508 .def_508 .def_508 .def_508 .def_508 .def_508 .def_508 .def_508 .def_508 .def_508 .def_508 .def_508 .def_508 .def_508 .def_508 .def_508 .def_508 .def_508 .def_508 .def_508 .def_508 .def_508 .def_508 .def_508 .def_508 .def_508 .def_508 .def_508 .def_508 .def_508 .def_508 .def_508 .def_508 .def_508 .def_508 .def_508 .def_508 .def_508 .def_508 .def_508 .def_508 .def_508 .def_508 .def_508 .def_508 .def_508 .def_508 .def_508 .def_508 .def_508 .def_508 .def_508 .def_508 .def_508 .def_508 .def_508 .def_508 .def_508 .def_508 .def_508 .def_508 .def_507 .def_506 .def_505 .def_504 .def_503 .def_502 .def_501 .def_500 .def_499 .def_498 .def_497 .def_496 .def_495 .def_494 .def_493 .def_492 .def_491 .def_490 .def_489 .def_488 .def_487 .def_486 .def_485 .def_484 .def_483 .def_482 .def_481))) (let ((.def_540 (and .def_539 .def_480 .def_196 true true .def_195 .def_38 .def_37 .def_36 .def_26 .def_25 .def_24 .def_23 .def_22 .def_21 .def_20 .def_19 .def_18 .def_17 .def_16 .def_15 .def_5 .def_4 .def_3 .def_2 .def_1 .def_0 true))) .def_540))))))))))))))))))))))))))))))))))))))))))))))))))))))))))))))))))))))))))))))))))))))))))))))))))))))))))))))))))))))))))))))))))))))))))))))))))))))))))))))))))))))))))))))))))))))))))))))))))))))))))))))))))))))))))))))))))))))))))))))))))))))))))))))))))))))))))))))))))))))))))))))))))))))))))))))))))))))))))))))))))))))))))))))))))))))))))))))))))))))))))))))))))))))))))))))))))))))))))))))))))))))))))))))))))))))))))))))))))))))))))))))))))))))))))))))))))))))))))))))))))))))))))))))))))))))))))))))))))))))))))))))))))))))))))))))
(check-sat)


